language Essence 1.3

letting bot_end be [387, 71, 120, 352, 284, 332, 156, 147, 125, 150, 148, 279, 201, 14, 146, 151, 336, 196; int(1..18)]
letting bot_start be
        [103, 153, 252, 189, 327, 234, 117, 194, 15, 356, 326, 348, 224, 173, 95, 328, 100, 116; int(1..18)]
letting bots be 18
letting buffer_col be 2
letting buffer_row be 2
letting corridor_size be 1
letting n_shelves_col be 3
letting n_shelves_row be 13
letting shelf_col_size be 2
letting shelf_row_size be 1
